p cnf 14 28
-7 -5 0
11 4 12 6 0
1 -5 0
2 5 8 10 11 13 14 0
9 10 4 7 0
1 -14 0
4 5 6 7 0
9 4 12 14 0
1 -13 0
-7 -13 0
-8 -9 0
-13 -12 0
-14 -12 0
1 -10 0
-10 -9 0
8 9 4 6 0
3 -2 0
-3 -1 0
1 -11 0
-6 -11 0
4 12 13 7 0
-14 -9 0
2 -4 0
-7 -10 0
-6 -5 0
-8 -6 0
-8 1 0
-12 -11 0